max_width = 29;
n_blocks = 24;
width = [4, 3, 4, 3, 5, 4, 3, 3, 3, 4, 3, 5, 3, 4, 3, 4, 3, 4, 3, 5, 4, 3, 4, 3];
height = [20, 20, 18, 18, 17, 15, 15, 11, 10, 9, 9, 8, 8, 7, 7, 6, 6, 5, 5, 4, 4, 4, 3, 3];
